c instance by G2
c solution = 010001010110110
c Known solution cost is 806 
p cnf 15 30
w 12 73 87 37 80 96 22 43 48 88 86 8 84 40 2
-15 -8 -3 0
12 1 -15 0
-1 11 -13 0
7 -15 -6 0
-6 -3 11 0
11 -4 9 0
2 8 10 0
1 -12 5 0
2 1 5 0
8 12 -2 0
6 3 -14 0
-2 6 -13 0
10 3 5 0
-3 -6 7 0
-12 9 -14 0
12 -4 3 0
-3 -2 -6 0
14 -6 9 0
1 -2 -4 0
8 6 -15 0
-9 7 1 0
-6 -5 15 0
10 -6 -13 0
-8 -15 10 0
-14 -6 13 0
-6 -7 -8 0
-11 -3 5 0
-11 12 -5 0
3 -13 -1 0
5 -2 11 0
